HUN,8,6,992
1,10,2,19,0,25,5,25,3,16,4,21
0,19,2,5,1,27,4,28,3,26,5,24
0,17,2,28,1,26,4,9,5,8,3,14
2,10,1,27,0,29,5,18,4,10,3,6
0,9,2,22,1,15,4,12,5,20,3,1
2,6,0,10,1,22,4,22,5,23,3,5
2,19,1,27,0,27,4,19,3,30,5,2
1,12,0,1,2,21,5,5,3,18,4,26
